143
1000000
174923
596041
178537
332069
420473
605557
426650
249429
24549
352741
519080
547028
747154
302315
423309
43968
98071
92128
690574
612569
115179
530927
367021
79254
522300
403959
82730
74705
66507
516747
509532
221156
181504
39564
474472
42
297542
156701
58413
167083
555862
680822
103347
457491
321353
692377
387183
279185
40416
206567
304217
171284
423961
249189
627879
435960
679872
39260
95729
366946
15748
2228
407138
114430
92456
351825
7865
433075
546955
124163
512933
647259
41160
79476
661566
386032
48964
159897
474274
108190
205249
539204
475763
58298
212696
247950
316083
513386
398746
262941
205927
35016
691404
280459
525528
319178
85581
83306
258092
8502
483253
137054
531174
469073
306739
168111
482816
667931
77117
145205
273343
681251
350922
342831
330440
693261
144713
244005
399536
675040
477700
84109
462631
186221
48833
1188
216928
274098
440145
213647
614391
670708
141101
515897
57030
78498
564040
307623
373641
53436
630826
205119
418029
